\ Model UAVstrike
\ LP format - for model browsing. Use MPS format to capture full model detail.
Minimize
  0.1 C144 + 0.1 C145 + 0.1 C146 + 0.1 C147 + 0.1 C148 + 0.1 C149 + C150
Subject To
 R0: C32 + C35 + C38 + C41 + C44 + C47 + C50 + C53 + C64 + C70 + C76 + C82
   + C88 + C94 + C100 + C106 = 1
 R1: C8 + C11 + C14 + C17 + C20 + C23 + C26 + C29 + C67 + C73 + C79 + C85
   + C91 + C97 + C103 + C109 = 1
 R2: C34 + C37 + C40 + C43 + C46 + C49 + C52 + C55 + C66 + C72 + C78 + C84
   + C90 + C96 + C102 + C108 = 1
 R3: C10 + C13 + C16 + C19 + C22 + C25 + C28 + C31 + C69 + C75 + C81 + C87
   + C93 + C99 + C105 + C111 = 1
 R4: C0 + C1 + C2 + C3 + C4 + C5 + C6 + C7 + C33 + C36 + C39 + C42 + C45
   + C48 + C51 + C54 + C65 + C71 + C77 + C83 + C89 + C95 + C101 + C107 = 1
 R5: C9 + C12 + C15 + C18 + C21 + C24 + C27 + C30 + C56 + C57 + C58 + C59
   + C60 + C61 + C62 + C63 + C68 + C74 + C80 + C86 + C92 + C98 + C104
   + C110 = 1
 R6: C32 + C35 + C38 + C41 + C44 + C47 + C50 + C53 + C64 + C70 + C76 + C82
   + C88 + C94 + C100 + C106 <= 1
 R7: C8 + C11 + C14 + C17 + C20 + C23 + C26 + C29 + C67 + C73 + C79 + C85
   + C91 + C97 + C103 + C109 <= 1
 R8: C34 + C37 + C40 + C43 + C46 + C49 + C52 + C55 + C66 + C72 + C78 + C84
   + C90 + C96 + C102 + C108 <= 1
 R9: C10 + C13 + C16 + C19 + C22 + C25 + C28 + C31 + C69 + C75 + C81 + C87
   + C93 + C99 + C105 + C111 <= 1
 R10: C0 + C1 + C2 + C3 + C4 + C5 + C6 + C7 + C33 + C36 + C39 + C42 + C45
   + C48 + C51 + C54 + C65 + C71 + C77 + C83 + C89 + C95 + C101 + C107
   <= 1
 R11: C9 + C12 + C15 + C18 + C21 + C24 + C27 + C30 + C56 + C57 + C58 + C59
   + C60 + C61 + C62 + C63 + C68 + C74 + C80 + C86 + C92 + C98 + C104
   + C110 <= 1
 R12: C32 + C33 + C34 + C64 + C65 + C66 <= 1
 R13: C8 + C9 + C10 + C67 + C68 + C69 <= 1
 R14: C35 + C36 + C37 + C70 + C71 + C72 <= 1
 R15: C11 + C12 + C13 + C73 + C74 + C75 <= 1
 R16: C38 + C39 + C40 + C76 + C77 + C78 <= 1
 R17: C14 + C15 + C16 + C79 + C80 + C81 <= 1
 R18: C41 + C42 + C43 + C82 + C83 + C84 <= 1
 R19: C17 + C18 + C19 + C85 + C86 + C87 <= 1
 R20: C44 + C45 + C46 + C88 + C89 + C90 <= 1
 R21: C20 + C21 + C22 + C91 + C92 + C93 <= 1
 R22: C47 + C48 + C49 + C94 + C95 + C96 <= 1
 R23: C23 + C24 + C25 + C97 + C98 + C99 <= 1
 R24: C50 + C51 + C52 + C100 + C101 + C102 <= 1
 R25: C26 + C27 + C28 + C103 + C104 + C105 <= 1
 R26: C53 + C54 + C55 + C106 + C107 + C108 <= 1
 R27: C29 + C30 + C31 + C109 + C110 + C111 <= 1
 R28: C112 + C120 + C128 <= 1
 R29: C113 + C121 + C129 <= 1
 R30: C114 + C122 + C130 <= 1
 R31: C115 + C123 + C131 <= 1
 R32: C116 + C124 + C132 <= 1
 R33: C117 + C125 + C133 <= 1
 R34: C118 + C126 + C134 <= 1
 R35: C119 + C127 + C135 <= 1
 R36: C32 + C33 + C34 + C112 <= 1
 R37: C8 + C9 + C10 + C120 <= 1
 R38: C35 + C36 + C37 + C113 <= 1
 R39: C11 + C12 + C13 + C121 <= 1
 R40: C38 + C39 + C40 + C114 <= 1
 R41: C14 + C15 + C16 + C122 <= 1
 R42: C41 + C42 + C43 + C115 <= 1
 R43: C17 + C18 + C19 + C123 <= 1
 R44: C44 + C45 + C46 + C116 <= 1
 R45: C20 + C21 + C22 + C124 <= 1
 R46: C47 + C48 + C49 + C117 <= 1
 R47: C23 + C24 + C25 + C125 <= 1
 R48: C50 + C51 + C52 + C118 <= 1
 R49: C26 + C27 + C28 + C126 <= 1
 R50: C53 + C54 + C55 + C119 <= 1
 R51: C29 + C30 + C31 + C127 <= 1
 R52: C0 + C9 + C33 + C56 + C65 + C68 <= 1
 R53: C1 + C12 + C36 + C57 + C71 + C74 <= 1
 R54: C2 + C15 + C39 + C58 + C77 + C80 <= 1
 R55: C3 + C18 + C42 + C59 + C83 + C86 <= 1
 R56: C4 + C21 + C45 + C60 + C89 + C92 <= 1
 R57: C5 + C24 + C48 + C61 + C95 + C98 <= 1
 R58: C6 + C27 + C51 + C62 + C101 + C104 <= 1
 R59: C7 + C30 + C54 + C63 + C107 + C110 <= 1
 R60: C33 + C34 + C65 + C66 <= 1
 R61: C9 + C10 + C68 + C69 <= 1
 R62: C36 + C37 + C71 + C72 <= 1
 R63: C12 + C13 + C74 + C75 <= 1
 R64: C39 + C40 + C77 + C78 <= 1
 R65: C15 + C16 + C80 + C81 <= 1
 R66: C42 + C43 + C83 + C84 <= 1
 R67: C18 + C19 + C86 + C87 <= 1
 R68: C45 + C46 + C89 + C90 <= 1
 R69: C21 + C22 + C92 + C93 <= 1
 R70: C48 + C49 + C95 + C96 <= 1
 R71: C24 + C25 + C98 + C99 <= 1
 R72: C51 + C52 + C101 + C102 <= 1
 R73: C27 + C28 + C104 + C105 <= 1
 R74: C54 + C55 + C107 + C108 <= 1
 R75: C30 + C31 + C110 + C111 <= 1
 R76: - C8 - C9 - C10 + C34 + C66 - C112 <= 0
 R77: - C0 - C8 - C9 - C10 + C32 + C64 - C112 <= 0
 R78: - C11 - C12 - C13 + C37 + C72 - C113 <= 0
 R79: - C1 - C11 - C12 - C13 + C35 + C70 - C113 <= 0
 R80: - C14 - C15 - C16 + C40 + C78 - C114 <= 0
 R81: - C2 - C14 - C15 - C16 + C38 + C76 - C114 <= 0
 R82: - C17 - C18 - C19 + C43 + C84 - C115 <= 0
 R83: - C3 - C17 - C18 - C19 + C41 + C82 - C115 <= 0
 R84: - C20 - C21 - C22 + C46 + C90 - C116 <= 0
 R85: - C4 - C20 - C21 - C22 + C44 + C88 - C116 <= 0
 R86: - C23 - C24 - C25 + C49 + C96 - C117 <= 0
 R87: - C5 - C23 - C24 - C25 + C47 + C94 - C117 <= 0
 R88: - C26 - C27 - C28 + C52 + C102 - C118 <= 0
 R89: - C6 - C26 - C27 - C28 + C50 + C100 - C118 <= 0
 R90: - C29 - C30 - C31 + C55 + C108 - C119 <= 0
 R91: - C7 - C29 - C30 - C31 + C53 + C106 - C119 <= 0
 R92: C10 - C32 - C33 - C34 + C69 - C120 <= 0
 R93: C8 - C32 - C33 - C34 - C56 + C67 - C120 <= 0
 R94: C13 - C35 - C36 - C37 + C75 - C121 <= 0
 R95: C11 - C35 - C36 - C37 - C57 + C73 - C121 <= 0
 R96: C16 - C38 - C39 - C40 + C81 - C122 <= 0
 R97: C14 - C38 - C39 - C40 - C58 + C79 - C122 <= 0
 R98: C19 - C41 - C42 - C43 + C87 - C123 <= 0
 R99: C17 - C41 - C42 - C43 - C59 + C85 - C123 <= 0
 R100: C22 - C44 - C45 - C46 + C93 - C124 <= 0
 R101: C20 - C44 - C45 - C46 - C60 + C91 - C124 <= 0
 R102: C25 - C47 - C48 - C49 + C99 - C125 <= 0
 R103: C23 - C47 - C48 - C49 - C61 + C97 - C125 <= 0
 R104: C28 - C50 - C51 - C52 + C105 - C126 <= 0
 R105: C26 - C50 - C51 - C52 - C62 + C103 - C126 <= 0
 R106: C31 - C53 - C54 - C55 + C111 - C127 <= 0
 R107: C29 - C53 - C54 - C55 - C63 + C109 - C127 <= 0
 R108: C0 + C8 + C9 + C10 + C33 + C65 + C112 <= 1
 R109: C8 + C9 + C10 - C32 - C33 - C34 - C64 - C65 - C66 + C112 <= 0
 R110: C1 + C11 + C12 + C13 + C36 + C71 + C113 <= 1
 R111: C11 + C12 + C13 - C35 - C36 - C37 - C70 - C71 - C72 + C113 <= 0
 R112: C2 + C14 + C15 + C16 + C39 + C77 + C114 <= 1
 R113: C14 + C15 + C16 - C38 - C39 - C40 - C76 - C77 - C78 + C114 <= 0
 R114: C3 + C17 + C18 + C19 + C42 + C83 + C115 <= 1
 R115: C17 + C18 + C19 - C41 - C42 - C43 - C82 - C83 - C84 + C115 <= 0
 R116: C4 + C20 + C21 + C22 + C45 + C89 + C116 <= 1
 R117: C20 + C21 + C22 - C44 - C45 - C46 - C88 - C89 - C90 + C116 <= 0
 R118: C5 + C23 + C24 + C25 + C48 + C95 + C117 <= 1
 R119: C23 + C24 + C25 - C47 - C48 - C49 - C94 - C95 - C96 + C117 <= 0
 R120: C6 + C26 + C27 + C28 + C51 + C101 + C118 <= 1
 R121: C26 + C27 + C28 - C50 - C51 - C52 - C100 - C101 - C102 + C118 <= 0
 R122: C7 + C29 + C30 + C31 + C54 + C107 + C119 <= 1
 R123: C29 + C30 + C31 - C53 - C54 - C55 - C106 - C107 - C108 + C119 <= 0
 R124: C9 + C32 + C33 + C34 + C56 + C68 + C120 <= 1
 R125: - C8 - C9 - C10 + C32 + C33 + C34 - C67 - C68 - C69 + C120 <= 0
 R126: C12 + C35 + C36 + C37 + C57 + C74 + C121 <= 1
 R127: - C11 - C12 - C13 + C35 + C36 + C37 - C73 - C74 - C75 + C121 <= 0
 R128: C15 + C38 + C39 + C40 + C58 + C80 + C122 <= 1
 R129: - C14 - C15 - C16 + C38 + C39 + C40 - C79 - C80 - C81 + C122 <= 0
 R130: C18 + C41 + C42 + C43 + C59 + C86 + C123 <= 1
 R131: - C17 - C18 - C19 + C41 + C42 + C43 - C85 - C86 - C87 + C123 <= 0
 R132: C21 + C44 + C45 + C46 + C60 + C92 + C124 <= 1
 R133: - C20 - C21 - C22 + C44 + C45 + C46 - C91 - C92 - C93 + C124 <= 0
 R134: C24 + C47 + C48 + C49 + C61 + C98 + C125 <= 1
 R135: - C23 - C24 - C25 + C47 + C48 + C49 - C97 - C98 - C99 + C125 <= 0
 R136: C27 + C50 + C51 + C52 + C62 + C104 + C126 <= 1
 R137: - C26 - C27 - C28 + C50 + C51 + C52 - C103 - C104 - C105 + C126
   <= 0
 R138: C30 + C53 + C54 + C55 + C63 + C110 + C127 <= 1
 R139: - C29 - C30 - C31 + C53 + C54 + C55 - C109 - C110 - C111 + C127
   <= 0
 R140: C64 + C65 + C66 + C67 + C68 + C69 + C128 = 1
 R141: C70 + C71 + C72 + C73 + C74 + C75 + C129 = 1
 R142: C76 + C77 + C78 + C79 + C80 + C81 + C130 = 1
 R143: C82 + C83 + C84 + C85 + C86 + C87 + C131 = 1
 R144: C88 + C89 + C90 + C91 + C92 + C93 + C132 = 1
 R145: C94 + C95 + C96 + C97 + C98 + C99 + C133 = 1
 R146: C100 + C101 + C102 + C103 + C104 + C105 + C134 = 1
 R147: C106 + C107 + C108 + C109 + C110 + C111 + C135 = 1
 R148: C0 - C32 - C64 <= 0
 R149: C1 - C35 - C70 <= 0
 R150: C2 - C38 - C76 <= 0
 R151: C3 - C41 - C82 <= 0
 R152: C4 - C44 - C88 <= 0
 R153: C5 - C47 - C94 <= 0
 R154: C6 - C50 - C100 <= 0
 R155: C7 - C53 - C106 <= 0
 R156: - C8 + C56 - C67 <= 0
 R157: - C11 + C57 - C73 <= 0
 R158: - C14 + C58 - C79 <= 0
 R159: - C17 + C59 - C85 <= 0
 R160: - C20 + C60 - C91 <= 0
 R161: - C23 + C61 - C97 <= 0
 R162: - C26 + C62 - C103 <= 0
 R163: - C29 + C63 - C109 <= 0
 R164: 800 C8 + 800 C32 + 800 C64 - C144 + C147 <= 1608
 R165: - 800 C8 - 800 C32 - 800 C64 - C144 + C147 >= -1592
 R166: 800 C8 + 800 C34 + 800 C66 - C146 + C147 <= 1608
 R167: - 800 C8 - 800 C34 - 800 C66 - C146 + C147 >= -1592
 R168: 800 C10 + 800 C32 + 800 C64 - C144 + C149 <= 1620
 R169: - 800 C10 - 800 C32 - 800 C64 - C144 + C149 >= -1580
 R170: 800 C10 + 800 C34 + 800 C66 - C146 + C149 <= 1620
 R171: - 800 C10 - 800 C34 - 800 C66 - C146 + C149 >= -1580
 R172: 800 C11 + 800 C35 + 800 C70 - C144 + C147 <= 1611
 R173: - 800 C11 - 800 C35 - 800 C70 - C144 + C147 >= -1589
 R174: 800 C11 + 800 C37 + 800 C72 - C146 + C147 <= 1611
 R175: - 800 C11 - 800 C37 - 800 C72 - C146 + C147 >= -1589
 R176: 800 C13 + 800 C35 + 800 C70 - C144 + C149 <= 1622
 R177: - 800 C13 - 800 C35 - 800 C70 - C144 + C149 >= -1578
 R178: 800 C13 + 800 C37 + 800 C72 - C146 + C149 <= 1622
 R179: - 800 C13 - 800 C37 - 800 C72 - C146 + C149 >= -1578
 R180: 800 C14 + 800 C38 + 800 C76 - C144 + C147 <= 1630
 R181: - 800 C14 - 800 C38 - 800 C76 - C144 + C147 >= -1570
 R182: 800 C14 + 800 C40 + 800 C78 - C146 + C147 <= 1630
 R183: - 800 C14 - 800 C40 - 800 C78 - C146 + C147 >= -1570
 R184: 800 C16 + 800 C38 + 800 C76 - C144 + C149 <= 1617
 R185: - 800 C16 - 800 C38 - 800 C76 - C144 + C149 >= -1583
 R186: 800 C16 + 800 C40 + 800 C78 - C146 + C149 <= 1617
 R187: - 800 C16 - 800 C40 - 800 C78 - C146 + C149 >= -1583
 R188: 800 C17 + 800 C41 + 800 C82 - C144 + C147 <= 1620
 R189: - 800 C17 - 800 C41 - 800 C82 - C144 + C147 >= -1580
 R190: 800 C17 + 800 C43 + 800 C84 - C146 + C147 <= 1620
 R191: - 800 C17 - 800 C43 - 800 C84 - C146 + C147 >= -1580
 R192: 800 C19 + 800 C41 + 800 C82 - C144 + C149 <= 1602
 R193: - 800 C19 - 800 C41 - 800 C82 - C144 + C149 >= -1598
 R194: 800 C19 + 800 C43 + 800 C84 - C146 + C149 <= 1602
 R195: - 800 C19 - 800 C43 - 800 C84 - C146 + C149 >= -1598
 R196: 800 C20 + 800 C44 + 800 C88 - C144 + C147 <= 1608
 R197: - 800 C20 - 800 C44 - 800 C88 - C144 + C147 >= -1592
 R198: 800 C20 + 800 C46 + 800 C90 - C146 + C147 <= 1608
 R199: - 800 C20 - 800 C46 - 800 C90 - C146 + C147 >= -1592
 R200: 800 C22 + 800 C44 + 800 C88 - C144 + C149 <= 1609
 R201: - 800 C22 - 800 C44 - 800 C88 - C144 + C149 >= -1591
 R202: 800 C22 + 800 C46 + 800 C90 - C146 + C149 <= 1609
 R203: - 800 C22 - 800 C46 - 800 C90 - C146 + C149 >= -1591
 R204: 800 C23 + 800 C47 + 800 C94 - C144 + C147 <= 1612
 R205: - 800 C23 - 800 C47 - 800 C94 - C144 + C147 >= -1588
 R206: 800 C23 + 800 C49 + 800 C96 - C146 + C147 <= 1612
 R207: - 800 C23 - 800 C49 - 800 C96 - C146 + C147 >= -1588
 R208: 800 C25 + 800 C47 + 800 C94 - C144 + C149 <= 1610
 R209: - 800 C25 - 800 C47 - 800 C94 - C144 + C149 >= -1590
 R210: 800 C25 + 800 C49 + 800 C96 - C146 + C149 <= 1610
 R211: - 800 C25 - 800 C49 - 800 C96 - C146 + C149 >= -1590
 R212: 800 C26 + 800 C50 + 800 C100 - C144 + C147 <= 1613
 R213: - 800 C26 - 800 C50 - 800 C100 - C144 + C147 >= -1587
 R214: 800 C26 + 800 C52 + 800 C102 - C146 + C147 <= 1613
 R215: - 800 C26 - 800 C52 - 800 C102 - C146 + C147 >= -1587
 R216: 800 C28 + 800 C50 + 800 C100 - C144 + C149 <= 1622
 R217: - 800 C28 - 800 C50 - 800 C100 - C144 + C149 >= -1578
 R218: 800 C28 + 800 C52 + 800 C102 - C146 + C149 <= 1622
 R219: - 800 C28 - 800 C52 - 800 C102 - C146 + C149 >= -1578
 R220: 800 C29 + 800 C53 + 800 C106 - C144 + C147 <= 1607
 R221: - 800 C29 - 800 C53 - 800 C106 - C144 + C147 >= -1593
 R222: 800 C29 + 800 C55 + 800 C108 - C146 + C147 <= 1607
 R223: - 800 C29 - 800 C55 - 800 C108 - C146 + C147 >= -1593
 R224: 800 C31 + 800 C53 + 800 C106 - C144 + C149 <= 1601
 R225: - 800 C31 - 800 C53 - 800 C106 - C144 + C149 >= -1599
 R226: 800 C31 + 800 C55 + 800 C108 - C146 + C149 <= 1601
 R227: - 800 C31 - 800 C55 - 800 C108 - C146 + C149 >= -1599
 R228: 800 C8 + 800 C32 + 800 C67 + C144 - C147 <= 1614
 R229: - 800 C8 - 800 C32 - 800 C67 + C144 - C147 >= -1586
 R230: 800 C10 + 800 C32 + 800 C69 + C144 - C149 <= 1614
 R231: - 800 C10 - 800 C32 - 800 C69 + C144 - C149 >= -1586
 R232: 800 C8 + 800 C34 + 800 C67 + C146 - C147 <= 1611
 R233: - 800 C8 - 800 C34 - 800 C67 + C146 - C147 >= -1589
 R234: 800 C10 + 800 C34 + 800 C69 + C146 - C149 <= 1611
 R235: - 800 C10 - 800 C34 - 800 C69 + C146 - C149 >= -1589
 R236: 800 C11 + 800 C35 + 800 C73 + C144 - C147 <= 1616
 R237: - 800 C11 - 800 C35 - 800 C73 + C144 - C147 >= -1584
 R238: 800 C13 + 800 C35 + 800 C75 + C144 - C149 <= 1616
 R239: - 800 C13 - 800 C35 - 800 C75 + C144 - C149 >= -1584
 R240: 800 C11 + 800 C37 + 800 C73 + C146 - C147 <= 1602
 R241: - 800 C11 - 800 C37 - 800 C73 + C146 - C147 >= -1598
 R242: 800 C13 + 800 C37 + 800 C75 + C146 - C149 <= 1602
 R243: - 800 C13 - 800 C37 - 800 C75 + C146 - C149 >= -1598
 R244: 800 C14 + 800 C38 + 800 C79 + C144 - C147 <= 1601
 R245: - 800 C14 - 800 C38 - 800 C79 + C144 - C147 >= -1599
 R246: 800 C16 + 800 C38 + 800 C81 + C144 - C149 <= 1601
 R247: - 800 C16 - 800 C38 - 800 C81 + C144 - C149 >= -1599
 R248: 800 C14 + 800 C40 + 800 C79 + C146 - C147 <= 1603
 R249: - 800 C14 - 800 C40 - 800 C79 + C146 - C147 >= -1597
 R250: 800 C16 + 800 C40 + 800 C81 + C146 - C149 <= 1603
 R251: - 800 C16 - 800 C40 - 800 C81 + C146 - C149 >= -1597
 R252: 800 C17 + 800 C41 + 800 C85 + C144 - C147 <= 1627
 R253: - 800 C17 - 800 C41 - 800 C85 + C144 - C147 >= -1573
 R254: 800 C19 + 800 C41 + 800 C87 + C144 - C149 <= 1627
 R255: - 800 C19 - 800 C41 - 800 C87 + C144 - C149 >= -1573
 R256: 800 C17 + 800 C43 + 800 C85 + C146 - C147 <= 1607
 R257: - 800 C17 - 800 C43 - 800 C85 + C146 - C147 >= -1593
 R258: 800 C19 + 800 C43 + 800 C87 + C146 - C149 <= 1607
 R259: - 800 C19 - 800 C43 - 800 C87 + C146 - C149 >= -1593
 R260: 800 C20 + 800 C44 + 800 C91 + C144 - C147 <= 1606
 R261: - 800 C20 - 800 C44 - 800 C91 + C144 - C147 >= -1594
 R262: 800 C22 + 800 C44 + 800 C93 + C144 - C149 <= 1606
 R263: - 800 C22 - 800 C44 - 800 C93 + C144 - C149 >= -1594
 R264: 800 C20 + 800 C46 + 800 C91 + C146 - C147 <= 1626
 R265: - 800 C20 - 800 C46 - 800 C91 + C146 - C147 >= -1574
 R266: 800 C22 + 800 C46 + 800 C93 + C146 - C149 <= 1626
 R267: - 800 C22 - 800 C46 - 800 C93 + C146 - C149 >= -1574
 R268: 800 C23 + 800 C47 + 800 C97 + C144 - C147 <= 1630
 R269: - 800 C23 - 800 C47 - 800 C97 + C144 - C147 >= -1570
 R270: 800 C25 + 800 C47 + 800 C99 + C144 - C149 <= 1630
 R271: - 800 C25 - 800 C47 - 800 C99 + C144 - C149 >= -1570
 R272: 800 C23 + 800 C49 + 800 C97 + C146 - C147 <= 1617
 R273: - 800 C23 - 800 C49 - 800 C97 + C146 - C147 >= -1583
 R274: 800 C25 + 800 C49 + 800 C99 + C146 - C149 <= 1617
 R275: - 800 C25 - 800 C49 - 800 C99 + C146 - C149 >= -1583
 R276: 800 C26 + 800 C50 + 800 C103 + C144 - C147 <= 1630
 R277: - 800 C26 - 800 C50 - 800 C103 + C144 - C147 >= -1570
 R278: 800 C28 + 800 C50 + 800 C105 + C144 - C149 <= 1630
 R279: - 800 C28 - 800 C50 - 800 C105 + C144 - C149 >= -1570
 R280: 800 C26 + 800 C52 + 800 C103 + C146 - C147 <= 1627
 R281: - 800 C26 - 800 C52 - 800 C103 + C146 - C147 >= -1573
 R282: 800 C28 + 800 C52 + 800 C105 + C146 - C149 <= 1627
 R283: - 800 C28 - 800 C52 - 800 C105 + C146 - C149 >= -1573
 R284: 800 C29 + 800 C53 + 800 C109 + C144 - C147 <= 1629
 R285: - 800 C29 - 800 C53 - 800 C109 + C144 - C147 >= -1571
 R286: 800 C31 + 800 C53 + 800 C111 + C144 - C149 <= 1629
 R287: - 800 C31 - 800 C53 - 800 C111 + C144 - C149 >= -1571
 R288: 800 C29 + 800 C55 + 800 C109 + C146 - C147 <= 1628
 R289: - 800 C29 - 800 C55 - 800 C109 + C146 - C147 >= -1572
 R290: 800 C31 + 800 C55 + 800 C111 + C146 - C149 <= 1628
 R291: - 800 C31 - 800 C55 - 800 C111 + C146 - C149 >= -1572
 R292: 800 C9 + 800 C32 + 800 C64 - C144 + C148 <= 1630
 R293: - 800 C9 - 800 C32 - 800 C64 - C144 + C148 >= -1570
 R294: 800 C9 + 800 C34 + 800 C66 - C146 + C148 <= 1630
 R295: - 800 C9 - 800 C34 - 800 C66 - C146 + C148 >= -1570
 R296: 800 C12 + 800 C35 + 800 C70 - C144 + C148 <= 1608
 R297: - 800 C12 - 800 C35 - 800 C70 - C144 + C148 >= -1592
 R298: 800 C12 + 800 C37 + 800 C72 - C146 + C148 <= 1608
 R299: - 800 C12 - 800 C37 - 800 C72 - C146 + C148 >= -1592
 R300: 800 C15 + 800 C38 + 800 C76 - C144 + C148 <= 1623
 R301: - 800 C15 - 800 C38 - 800 C76 - C144 + C148 >= -1577
 R302: 800 C15 + 800 C40 + 800 C78 - C146 + C148 <= 1623
 R303: - 800 C15 - 800 C40 - 800 C78 - C146 + C148 >= -1577
 R304: 800 C18 + 800 C41 + 800 C82 - C144 + C148 <= 1609
 R305: - 800 C18 - 800 C41 - 800 C82 - C144 + C148 >= -1591
 R306: 800 C18 + 800 C43 + 800 C84 - C146 + C148 <= 1609
 R307: - 800 C18 - 800 C43 - 800 C84 - C146 + C148 >= -1591
 R308: 800 C21 + 800 C44 + 800 C88 - C144 + C148 <= 1609
 R309: - 800 C21 - 800 C44 - 800 C88 - C144 + C148 >= -1591
 R310: 800 C21 + 800 C46 + 800 C90 - C146 + C148 <= 1609
 R311: - 800 C21 - 800 C46 - 800 C90 - C146 + C148 >= -1591
 R312: 800 C24 + 800 C47 + 800 C94 - C144 + C148 <= 1620
 R313: - 800 C24 - 800 C47 - 800 C94 - C144 + C148 >= -1580
 R314: 800 C24 + 800 C49 + 800 C96 - C146 + C148 <= 1620
 R315: - 800 C24 - 800 C49 - 800 C96 - C146 + C148 >= -1580
 R316: 800 C27 + 800 C50 + 800 C100 - C144 + C148 <= 1604
 R317: - 800 C27 - 800 C50 - 800 C100 - C144 + C148 >= -1596
 R318: 800 C27 + 800 C52 + 800 C102 - C146 + C148 <= 1604
 R319: - 800 C27 - 800 C52 - 800 C102 - C146 + C148 >= -1596
 R320: 800 C30 + 800 C53 + 800 C106 - C144 + C148 <= 1622
 R321: - 800 C30 - 800 C53 - 800 C106 - C144 + C148 >= -1578
 R322: 800 C30 + 800 C55 + 800 C108 - C146 + C148 <= 1622
 R323: - 800 C30 - 800 C55 - 800 C108 - C146 + C148 >= -1578
 R324: 800 C8 + 800 C33 + 800 C67 + C145 - C147 <= 1607
 R325: - 800 C8 - 800 C33 - 800 C67 + C145 - C147 >= -1593
 R326: 800 C10 + 800 C33 + 800 C69 + C145 - C149 <= 1607
 R327: - 800 C10 - 800 C33 - 800 C69 + C145 - C149 >= -1593
 R328: 800 C11 + 800 C36 + 800 C73 + C145 - C147 <= 1629
 R329: - 800 C11 - 800 C36 - 800 C73 + C145 - C147 >= -1571
 R330: 800 C13 + 800 C36 + 800 C75 + C145 - C149 <= 1629
 R331: - 800 C13 - 800 C36 - 800 C75 + C145 - C149 >= -1571
 R332: 800 C14 + 800 C39 + 800 C79 + C145 - C147 <= 1625
 R333: - 800 C14 - 800 C39 - 800 C79 + C145 - C147 >= -1575
 R334: 800 C16 + 800 C39 + 800 C81 + C145 - C149 <= 1625
 R335: - 800 C16 - 800 C39 - 800 C81 + C145 - C149 >= -1575
 R336: 800 C17 + 800 C42 + 800 C85 + C145 - C147 <= 1609
 R337: - 800 C17 - 800 C42 - 800 C85 + C145 - C147 >= -1591
 R338: 800 C19 + 800 C42 + 800 C87 + C145 - C149 <= 1609
 R339: - 800 C19 - 800 C42 - 800 C87 + C145 - C149 >= -1591
 R340: 800 C20 + 800 C45 + 800 C91 + C145 - C147 <= 1616
 R341: - 800 C20 - 800 C45 - 800 C91 + C145 - C147 >= -1584
 R342: 800 C22 + 800 C45 + 800 C93 + C145 - C149 <= 1616
 R343: - 800 C22 - 800 C45 - 800 C93 + C145 - C149 >= -1584
 R344: 800 C23 + 800 C48 + 800 C97 + C145 - C147 <= 1627
 R345: - 800 C23 - 800 C48 - 800 C97 + C145 - C147 >= -1573
 R346: 800 C25 + 800 C48 + 800 C99 + C145 - C149 <= 1627
 R347: - 800 C25 - 800 C48 - 800 C99 + C145 - C149 >= -1573
 R348: 800 C26 + 800 C51 + 800 C103 + C145 - C147 <= 1613
 R349: - 800 C26 - 800 C51 - 800 C103 + C145 - C147 >= -1587
 R350: 800 C28 + 800 C51 + 800 C105 + C145 - C149 <= 1613
 R351: - 800 C28 - 800 C51 - 800 C105 + C145 - C149 >= -1587
 R352: 800 C29 + 800 C54 + 800 C109 + C145 - C147 <= 1618
 R353: - 800 C29 - 800 C54 - 800 C109 + C145 - C147 >= -1582
 R354: 800 C31 + 800 C54 + 800 C111 + C145 - C149 <= 1618
 R355: - 800 C31 - 800 C54 - 800 C111 + C145 - C149 >= -1582
 R356: 100 C64 - C136 + C144 <= 123
 R357: - 100 C64 - C136 + C144 >= -77
 R358: 100 C65 - C136 + C145 <= 121
 R359: - 100 C65 - C136 + C145 >= -79
 R360: 100 C66 - C136 + C146 <= 104
 R361: - 100 C66 - C136 + C146 >= -96
 R362: 100 C70 - C137 + C144 <= 120
 R363: - 100 C70 - C137 + C144 >= -80
 R364: 100 C71 - C137 + C145 <= 116
 R365: - 100 C71 - C137 + C145 >= -84
 R366: 100 C72 - C137 + C146 <= 115
 R367: - 100 C72 - C137 + C146 >= -85
 R368: 100 C76 - C138 + C144 <= 108
 R369: - 100 C76 - C138 + C144 >= -92
 R370: 100 C77 - C138 + C145 <= 101
 R371: - 100 C77 - C138 + C145 >= -99
 R372: 100 C78 - C138 + C146 <= 119
 R373: - 100 C78 - C138 + C146 >= -81
 R374: 100 C82 - C139 + C144 <= 107
 R375: - 100 C82 - C139 + C144 >= -93
 R376: 100 C83 - C139 + C145 <= 117
 R377: - 100 C83 - C139 + C145 >= -83
 R378: 100 C84 - C139 + C146 <= 116
 R379: - 100 C84 - C139 + C146 >= -84
 R380: 100 C88 - C140 + C144 <= 108
 R381: - 100 C88 - C140 + C144 >= -92
 R382: 100 C89 - C140 + C145 <= 109
 R383: - 100 C89 - C140 + C145 >= -91
 R384: 100 C90 - C140 + C146 <= 104
 R385: - 100 C90 - C140 + C146 >= -96
 R386: 100 C94 - C141 + C144 <= 124
 R387: - 100 C94 - C141 + C144 >= -76
 R388: 100 C95 - C141 + C145 <= 114
 R389: - 100 C95 - C141 + C145 >= -86
 R390: 100 C96 - C141 + C146 <= 119
 R391: - 100 C96 - C141 + C146 >= -81
 R392: 100 C100 - C142 + C144 <= 125
 R393: - 100 C100 - C142 + C144 >= -75
 R394: 100 C101 - C142 + C145 <= 102
 R395: - 100 C101 - C142 + C145 >= -98
 R396: 100 C102 - C142 + C146 <= 114
 R397: - 100 C102 - C142 + C146 >= -86
 R398: 100 C106 - C143 + C144 <= 105
 R399: - 100 C106 - C143 + C144 >= -95
 R400: 100 C107 - C143 + C145 <= 109
 R401: - 100 C107 - C143 + C145 >= -91
 R402: 100 C108 - C143 + C146 <= 122
 R403: - 100 C108 - C143 + C146 >= -78
 R404: 100 C67 - C136 + C147 <= 127
 R405: - 100 C67 - C136 + C147 >= -73
 R406: 100 C68 - C136 + C148 <= 128
 R407: - 100 C68 - C136 + C148 >= -72
 R408: 100 C69 - C136 + C149 <= 107
 R409: - 100 C69 - C136 + C149 >= -93
 R410: 100 C73 - C137 + C147 <= 125
 R411: - 100 C73 - C137 + C147 >= -75
 R412: 100 C74 - C137 + C148 <= 103
 R413: - 100 C74 - C137 + C148 >= -97
 R414: 100 C75 - C137 + C149 <= 124
 R415: - 100 C75 - C137 + C149 >= -76
 R416: 100 C79 - C138 + C147 <= 113
 R417: - 100 C79 - C138 + C147 >= -87
 R418: 100 C80 - C138 + C148 <= 118
 R419: - 100 C80 - C138 + C148 >= -82
 R420: 100 C81 - C138 + C149 <= 126
 R421: - 100 C81 - C138 + C149 >= -74
 R422: 100 C85 - C139 + C147 <= 102
 R423: - 100 C85 - C139 + C147 >= -98
 R424: 100 C86 - C139 + C148 <= 120
 R425: - 100 C86 - C139 + C148 >= -80
 R426: 100 C87 - C139 + C149 <= 126
 R427: - 100 C87 - C139 + C149 >= -74
 R428: 100 C91 - C140 + C147 <= 101
 R429: - 100 C91 - C140 + C147 >= -99
 R430: 100 C92 - C140 + C148 <= 109
 R431: - 100 C92 - C140 + C148 >= -91
 R432: 100 C93 - C140 + C149 <= 118
 R433: - 100 C93 - C140 + C149 >= -82
 R434: 100 C97 - C141 + C147 <= 130
 R435: - 100 C97 - C141 + C147 >= -70
 R436: 100 C98 - C141 + C148 <= 104
 R437: - 100 C98 - C141 + C148 >= -96
 R438: 100 C99 - C141 + C149 <= 118
 R439: - 100 C99 - C141 + C149 >= -82
 R440: 100 C103 - C142 + C147 <= 105
 R441: - 100 C103 - C142 + C147 >= -95
 R442: 100 C104 - C142 + C148 <= 105
 R443: - 100 C104 - C142 + C148 >= -95
 R444: 100 C105 - C142 + C149 <= 103
 R445: - 100 C105 - C142 + C149 >= -97
 R446: 100 C109 - C143 + C147 <= 130
 R447: - 100 C109 - C143 + C147 >= -70
 R448: 100 C110 - C143 + C148 <= 110
 R449: - 100 C110 - C143 + C148 >= -90
 R450: 100 C111 - C143 + C149 <= 109
 R451: - 100 C111 - C143 + C149 >= -91
 R452: C144 - C145 <= -3
 R453: C145 - C146 <= -3
 R454: C147 - C148 <= -3
 R455: C148 - C149 <= -3
 R456: 8 C8 + 30 C9 + 20 C10 + 14 C32 + 7 C33 + 11 C34 + 23 C64 + 21 C65
   + 4 C66 + 27 C67 + 28 C68 + 7 C69 <= 100
 R457: 11 C11 + 8 C12 + 22 C13 + 16 C35 + 29 C36 + 2 C37 + 20 C70 + 16 C71
   + 15 C72 + 25 C73 + 3 C74 + 24 C75 <= 100
 R458: 30 C14 + 23 C15 + 17 C16 + C38 + 25 C39 + 3 C40 + 8 C76 + C77
   + 19 C78 + 13 C79 + 18 C80 + 26 C81 <= 100
 R459: 20 C17 + 9 C18 + 2 C19 + 27 C41 + 9 C42 + 7 C43 + 7 C82 + 17 C83
   + 16 C84 + 2 C85 + 20 C86 + 26 C87 <= 100
 R460: 8 C20 + 9 C21 + 9 C22 + 6 C44 + 16 C45 + 26 C46 + 8 C88 + 9 C89
   + 4 C90 + C91 + 9 C92 + 18 C93 <= 100
 R461: 12 C23 + 20 C24 + 10 C25 + 30 C47 + 27 C48 + 17 C49 + 24 C94
   + 14 C95 + 19 C96 + 30 C97 + 4 C98 + 18 C99 <= 100
 R462: 13 C26 + 4 C27 + 22 C28 + 30 C50 + 13 C51 + 27 C52 + 25 C100
   + 2 C101 + 14 C102 + 5 C103 + 5 C104 + 3 C105 <= 100
 R463: 7 C29 + 22 C30 + C31 + 29 C53 + 18 C54 + 28 C55 + 5 C106 + 9 C107
   + 22 C108 + 30 C109 + 10 C110 + 9 C111 <= 100
Bounds
Binaries
 C0 C1 C2 C3 C4 C5 C6 C7 C8 C9 C10 C11 C12 C13 C14 C15 C16 C17 C18 C19 C20
 C21 C22 C23 C24 C25 C26 C27 C28 C29 C30 C31 C32 C33 C34 C35 C36 C37 C38
 C39 C40 C41 C42 C43 C44 C45 C46 C47 C48 C49 C50 C51 C52 C53 C54 C55 C56
 C57 C58 C59 C60 C61 C62 C63 C64 C65 C66 C67 C68 C69 C70 C71 C72 C73 C74
 C75 C76 C77 C78 C79 C80 C81 C82 C83 C84 C85 C86 C87 C88 C89 C90 C91 C92
 C93 C94 C95 C96 C97 C98 C99 C100 C101 C102 C103 C104 C105 C106 C107 C108
 C109 C110 C111 C112 C113 C114 C115 C116 C117 C118 C119 C120 C121 C122 C123
 C124 C125 C126 C127 C128 C129 C130 C131 C132 C133 C134 C135
End
